Minimize

Subject To
r_1: + x1 + x2 = 0
r_2: - 0.6 x1 + x3 - 0.6 x23 = 0
r_3: - 0.4 x1 + x4 + x5 - 0.4 x23 = 0
r_4: - 0.5 x2 + x6 - 0.5 x24 = 0
r_5: - 0.5 x2 + x7 + x8 - 0.5 x24 = 0
r_6: - 0.5 x3 - 0.6 x6 + x9 = 0
r_7: - 0.5 x3 - 0.6 x7 + x10 = 0
r_8: - 1.0 x4 + x11 = 0
r_9: - 0.5 x5 - 0.4 x6 + x12 = 0
r_10: - 0.5 x5 - 0.4 x7 + x13 + x14 = 0
r_11: - 1.0 x8 + x15 = 0
r_12: - 1.0 x9 - 1.0 x10 - 0.5 x11 - 1.0 x12 - 0.6 x15 + x16 = 0
r_13: - 0.5 x11 - 1.0 x13 + x17 = 0
r_14: - 1.0 x14 - 0.4 x15 + x18 = 0
r_15: - 1.0 x16 - 1.0 x17 - 1.0 x18 + x19 = 0
r_16: - 1.0 x19 + x20 = 0
r_17: - 1.0 x20 + x21 = 0
r_18: - 1.0 x21 + x22 = 0
r_19: - 1.0 x22 + x23 + x24 = 0
r_00: + x1 + x2 + x3 + x4 + x5 + x6 + x7 + x8 + x9 + x10 + x11 + x12 + x13 + x14 + x15 + x16 + x17 + x18 + x19 + x20 + x21 + x22 + x23 + x24 = 1
End